c WARNING: for repeatability, setting FPU to use double precision
d VARIABLES            109614       
d CONSTRAINTS          492477       
c ============================[ Problem Statistics ]=============================
c |                                                                             |
c |  Number of variables:        109614                                         |
c |  Number of clauses:          492477                                         |
c |  Parse time:                   0.08 s                                       |
c |                                                                             |
c ============================[ Search Statistics ]==============================
c | Conflicts |          ORIGINAL         |          LEARNT          | Progress |
c |           |    Vars  Clauses Literals |    Limit  Clauses Lit/Cl |          |
c ===============================================================================
c |       100 |   94334   449373  1087666 |   164770      100     20 | 13.940 % |
c |       250 |   94334   449373  1087666 |   181247      250     31 | 13.940 % |
c |       475 |   94334   449373  1087666 |   199371      475     38 | 13.940 % |
c |       812 |   94334   449373  1087666 |   219309      812     31 | 13.940 % |
c |      1318 |   94334   449373  1087666 |   241239     1318     27 | 13.940 % |
c |      2077 |   94334   449373  1087666 |   265363     2077     32 | 13.940 % |
c |      3216 |   94334   449373  1087666 |   291900     3216     46 | 13.940 % |
c |      4924 |   94334   449373  1087666 |   321090     4924     47 | 13.940 % |
c |      7486 |   94334   449373  1087666 |   353199     7486     53 | 13.940 % |
c |     11330 |   94334   449373  1087666 |   388519    11330     49 | 13.940 % |
c |     17096 |   94334   449373  1087666 |   427371    17096     49 | 13.940 % |
c |     25745 |   94334   449373  1087666 |   470108    25745     47 | 13.940 % |
c |     38719 |   94334   449373  1087666 |   517119    38719     46 | 13.940 % |
c |     58180 |   94334   449373  1087666 |   568831    58180     48 | 13.940 % |
c |     87372 |   94334   449373  1087666 |   625714    87372     46 | 13.940 % |
c ===============================================================================
c restarts              : 255
c conflicts             : 102318         (3970 /sec)
c decisions             : 290071         (0.00 % random) (11255 /sec)
c propagations          : 125398947      (4865401 /sec)
c conflict literals     : 4543580        (31.36 % deleted)
d RESTARTS             255
d FAILURES             102318       
d NODES                290071       
d BACKTRACKS           290071       
d PROPAGATIONS         125398947    
d NOGOODSIZE           44.41 
d MEMORY               84.00 
d TIME                 25.7736 

s UNSATISFIABLE
